(set-logic ALL)
(declare-const k Int)
(declare-fun s () (_ BitVec k))
(declare-fun t () (_ BitVec k))
(assert (not (distinct (distinct s (bvmul t (bvshl (_ bv1 k) s))) (distinct s (bvshl t s)))))
(check-sat)
